Set parameter TokenServer to value "hpc-licenses.hpcc.usc.edu"
Set parameter TimeLimit to value 3600
Gurobi Optimizer version 9.5.1 build v9.5.1rc2 (linux64)
Thread count: 20 physical cores, 20 logical processors, using up to 20 threads
Optimize a model with 6006 rows, 4529 columns and 23034 nonzeros
Model fingerprint: 0xf3cf7b2b
Variable types: 4506 continuous, 23 integer (23 binary)
Coefficient statistics:
  Matrix range     [1e+00, 1e+00]
  Objective range  [3e-06, 1e+00]
  Bounds range     [1e+00, 1e+00]
  RHS range        [1e+00, 1e+00]
Presolve removed 1520 rows and 1515 columns
Presolve time: 0.05s
Presolved: 4486 rows, 3014 columns, 20481 nonzeros
Variable types: 2994 continuous, 20 integer (20 binary)
Found heuristic solution: objective 276.8198779
Found heuristic solution: objective 277.5246134

Root relaxation: objective 2.817145e+02, 2644 iterations, 0.09 seconds (0.11 work units)

    Nodes    |    Current Node    |     Objective Bounds      |     Work
 Expl Unexpl |  Obj  Depth IntInf | Incumbent    BestBd   Gap | It/Node Time

     0     0  281.71449    0    2  277.52461  281.71449  1.51%     -    0s
     0     0  281.42027    0    2  277.52461  281.42027  1.40%     -    0s
     0     0  281.42027    0    2  277.52461  281.42027  1.40%     -    0s
     0     0  281.30914    0    2  277.52461  281.30914  1.36%     -    1s
     0     0  280.12384    0    3  277.52461  280.12384  0.94%     -    1s
H    0     0                     278.1083057  280.12384  0.72%     -    1s
H    0     0                     278.3674663  280.12384  0.63%     -    1s
     0     0  278.73589    0    4  278.36747  278.73589  0.13%     -    1s

Cutting planes:
  Gomory: 6
  MIR: 596
  Flow cover: 2
  RLT: 2

Explored 1 nodes (4541 simplex iterations) in 1.62 seconds (0.51 work units)
Thread count was 20 (of 20 available processors)

Solution count 4: 278.367 278.108 277.525 276.82 

Optimal solution found (tolerance 1.00e-04)
Best objective 2.783674662855e+02, best bound 2.783674662855e+02, gap 0.0000%



#########node  1
V1.3
#########node  2
0.0,1.0
#########node  3
1.0,0.0


Total Solving Time 1.9825940132141113
obj value 278.36746628552953
Policy Regret train (Sum) 2.813734035801736
Best Treatment Found train (%) 80.60000000000001
treatment classification acc train (%) 26.200000000000003
Policy Regret test (Sum) 74.7927057357561
Best Treatment Found test (%) 71.66
treatment classification acc test (%) 25.919999999999998
Set parameter TokenServer to value "hpc-licenses.hpcc.usc.edu"
Set parameter TimeLimit to value 3600
Gurobi Optimizer version 9.5.1 build v9.5.1rc2 (linux64)
Thread count: 20 physical cores, 20 logical processors, using up to 20 threads
Optimize a model with 6006 rows, 4529 columns and 23034 nonzeros
Model fingerprint: 0xf3cf7b2b
Variable types: 4506 continuous, 23 integer (23 binary)
Coefficient statistics:
  Matrix range     [1e+00, 1e+00]
  Objective range  [3e-06, 1e+00]
  Bounds range     [1e+00, 1e+00]
  RHS range        [1e+00, 1e+00]
Presolve removed 1520 rows and 1515 columns
Presolve time: 0.05s
Presolved: 4486 rows, 3014 columns, 20481 nonzeros
Variable types: 2994 continuous, 20 integer (20 binary)
Found heuristic solution: objective 276.8198779
Found heuristic solution: objective 277.5246134

Root relaxation: objective 2.817145e+02, 2644 iterations, 0.08 seconds (0.11 work units)

    Nodes    |    Current Node    |     Objective Bounds      |     Work
 Expl Unexpl |  Obj  Depth IntInf | Incumbent    BestBd   Gap | It/Node Time

     0     0  281.71449    0    2  277.52461  281.71449  1.51%     -    0s
     0     0  281.42027    0    2  277.52461  281.42027  1.40%     -    0s
     0     0  281.42027    0    2  277.52461  281.42027  1.40%     -    0s
     0     0  281.30914    0    2  277.52461  281.30914  1.36%     -    0s
     0     0  280.12384    0    3  277.52461  280.12384  0.94%     -    1s
H    0     0                     278.1083057  280.12384  0.72%     -    1s
H    0     0                     278.3674663  280.12384  0.63%     -    1s
     0     0  278.73589    0    4  278.36747  278.73589  0.13%     -    1s

Cutting planes:
  Gomory: 6
  MIR: 596
  Flow cover: 2
  RLT: 2

Explored 1 nodes (4541 simplex iterations) in 1.22 seconds (0.51 work units)
Thread count was 20 (of 20 available processors)

Solution count 4: 278.367 278.108 277.525 276.82 

Optimal solution found (tolerance 1.00e-04)
Best objective 2.783674662855e+02, best bound 2.783674662855e+02, gap 0.0000%



#########node  1
V1.3
#########node  2
0.0,1.0
#########node  3
1.0,0.0


Total Solving Time 1.5681006908416748
obj value 278.36746628552953
Policy Regret train (Sum) 2.813734035801736
Best Treatment Found train (%) 80.60000000000001
treatment classification acc train (%) 26.200000000000003
Policy Regret test (Sum) 74.7927057357561
Best Treatment Found test (%) 71.66
treatment classification acc test (%) 25.919999999999998
